 vasp.5.4.4.18Apr17-6-g9f103f2a35 (build May 07 2018 22:18:08) complex

 executed on             LinuxIFC date 2020.08.06  18:31:12

 INCAR:
 POTCAR:    PAW Al 17Apr2000
 POTCAR:    PAW Al 17Apr2000
   VRHFIN =Al: s2p1

   TITEL  = PAW Al 17Apr2000
   POMASS =   26.981; ZVAL   =    3.000    mass and valenz
   ENMAX  =  240.957; ENMIN  =  180.718 eV

  PAW Al 17Apr2000                      :

 POSCAR: Al
  positions in cartesian coordinates
 exchange correlation table for  LEXCH =        2
   RHO(1)=    0.500       N(1)  =     2000
   RHO(2)=  100.500       N(2)  =     4000

 ion  position               nearest neighbor table
   1  0.107  0.083  0.400-  26 2.76  25 2.78   5 2.82  21 2.82  29 2.85  30 2.86   4 2.86   2 2.87

   2  0.358  0.085  0.397-  27 2.79   3 2.82  26 2.83  22 2.85  30 2.87   1 2.87   6 2.98  31 3.00

[...]

  25  0.978  0.008  0.439-  52 2.74   4 2.77   1 2.78  21 2.81  49 2.82  45 2.82  72 2.83  28 2.86
                            29 2.87  26 2.95  24 2.96  69 2.98
  26  0.235  0.011  0.439-   1 2.76  50 2.77  49 2.79  30 2.81  27 2.83   2 2.83  69 2.84  22 2.88
                            70 2.89  25 2.95  46 2.96  21 3.09
  27  0.482  0.010  0.438-   2 2.79  51 2.81   3 2.81  28 2.82  26 2.83  50 2.85  71 2.89  70 2.90
                            31 2.92  23 2.92  22 2.94  47 2.96
  28  0.728  0.011  0.438-   4 2.76  51 2.79   3 2.80  52 2.81  27 2.82  48 2.85  25 2.86  71 2.88
                            24 2.89  23 2.92  72 2.92  32 2.92
  29  0.984  0.175  0.438-  33 2.77  53 2.78   4 2.81  49 2.82  32 2.82   8 2.84   5 2.84   1 2.85
                            25 2.87  56 2.88  30 2.89  52 2.94
  30  0.236  0.175  0.437-   5 2.74  26 2.81  54 2.83  34 2.84   6 2.85   1 2.86   2 2.87  50 2.87
                            31 2.88  29 2.89  49 2.91  53 2.95
  31  0.488  0.179  0.438-  55 2.76  35 2.80   7 2.81   6 2.82   3 2.84  32 2.87  54 2.87  51 2.87
                            30 2.88  50 2.92  27 2.92   2 3.00
  32  0.738  0.181  0.438-  36 2.68  56 2.76   7 2.77  55 2.78  29 2.82   4 2.84  31 2.87   8 2.91
                            28 2.92  52 2.94   3 2.95  51 2.97
  33  0.991  0.336  0.437-  36 2.73   9 2.76  29 2.77  53 2.78  34 2.78   8 2.82  57 2.83  12 2.86
                             5 2.94  60 2.96  56 2.96  37 2.96
  34  0.233  0.340  0.437-   9 2.65  54 2.74  33 2.78  58 2.81   6 2.83  30 2.84  10 2.86  38 2.86
                            35 2.89   5 2.90  57 2.96  53 3.00
  35  0.486  0.342  0.436-   6 2.75  11 2.79  31 2.80  58 2.80  10 2.82  59 2.87  55 2.87   7 2.89
                            34 2.89  54 2.89  39 2.90  36 3.06
  36  0.752  0.337  0.438-  32 2.68  33 2.73  12 2.74  60 2.74  56 2.77  55 2.84   8 2.85   7 2.97
                            59 2.97  11 3.02  40 3.03  35 3.06
  37  0.991  0.508  0.439-  57 2.75  41 2.75  38 2.77  16 2.83  12 2.85  61 2.85   9 2.86  13 2.89
                            40 2.91  64 2.93  60 2.94  33 2.96
  38  0.233  0.507  0.438-   9 2.74  37 2.77  13 2.82  62 2.83  10 2.84  58 2.85  34 2.86  42 2.86
                            14 2.91  61 2.92  57 2.93  39 2.99
  39  0.493  0.511  0.437-  43 2.78  62 2.80  59 2.80  40 2.80  15 2.81  14 2.85  63 2.89  11 2.89
                            35 2.90  58 2.91  10 2.92  38 2.99
  40  0.738  0.513  0.438-  16 2.68  15 2.77  12 2.80  39 2.80  64 2.89  59 2.89  63 2.90  60 2.91
                            44 2.91  37 2.91  11 2.99  36 3.03
  41  0.982  0.668  0.436-  16 2.72  44 2.73  37 2.75  68 2.83  42 2.84  17 2.84  20 2.88  13 2.89
                            64 2.93  65 2.95  61 2.95  45 3.02
  42  0.229  0.673  0.438-  65 2.72  18 2.82  41 2.84  17 2.84  61 2.86  46 2.86  38 2.86  13 2.89
                            62 2.89  14 2.90  66 2.96  43 3.00
  43  0.491  0.672  0.440-  19 2.77  62 2.78  66 2.78  39 2.78  63 2.81  47 2.84  44 2.91  67 2.92
                            14 2.92  18 2.93  15 2.96  42 3.00
  44  0.745  0.682  0.438-  20 2.67  19 2.72  41 2.73  67 2.78  68 2.80  48 2.81  16 2.84  40 2.91
                            43 2.91  15 2.94  64 2.98  63 3.07
  45  0.981  0.844  0.439-  21 2.68  68 2.70  25 2.82  72 2.84  48 2.85  65 2.91  17 2.93  46 2.93
                            69 2.95  24 2.99  20 2.99  41 3.02
  46  0.237  0.840  0.438-  22 2.70  65 2.81  18 2.81  70 2.82  42 2.86  17 2.89  47 2.89  69 2.91
                            45 2.93  21 2.93  26 2.96  66 3.01
  47  0.489  0.837  0.439-  71 2.75  48 2.79  70 2.81  23 2.82  19 2.83  43 2.84  66 2.85  46 2.89
                            18 2.91  67 2.95  27 2.96  22 2.97
  48  0.733  0.845  0.438-  23 2.76  71 2.78  47 2.79  44 2.81  72 2.83  24 2.83  45 2.85  28 2.85
                            19 2.86  67 2.88  20 2.90  68 2.96
  49  0.105  0.092  0.478-  26 2.79  53 2.80  29 2.82  25 2.82  52 2.84  77 2.84  78 2.85  69 2.86
                            73 2.89  30 2.91  50 2.91  74 2.92
  50  0.358  0.092  0.478-  79 2.71  26 2.77  51 2.84  27 2.85  30 2.87  74 2.88  78 2.90  49 2.91
                            31 2.92  75 2.92  54 2.96  70 2.98
  51  0.606  0.088  0.478-  28 2.79  27 2.81  50 2.84  52 2.87  31 2.87  71 2.87  80 2.88  79 2.89
                            76 2.91  75 2.93  55 2.95  32 2.97
  52  0.857  0.084  0.478-  25 2.74  72 2.75  28 2.81  49 2.84  76 2.86  51 2.87  77 2.88  73 2.88
                            56 2.90  29 2.94  32 2.94  80 2.97
  53  0.098  0.254  0.479-  56 2.77  33 2.78  29 2.78  78 2.78  49 2.80  77 2.83  81 2.85  82 2.89
                            57 2.90  54 2.92  30 2.95  34 3.00
  54  0.352  0.264  0.476-  58 2.67  34 2.74  83 2.78  30 2.83  31 2.87  82 2.87  79 2.88  35 2.89
                            53 2.92  78 2.94  50 2.96  55 2.96
  55  0.610  0.260  0.477-  31 2.76  32 2.78  84 2.81  56 2.82  59 2.82  36 2.84  83 2.84  35 2.87
                            51 2.95  54 2.96  79 2.97  80 2.98
  56  0.856  0.253  0.479-  32 2.76  53 2.77  36 2.77  84 2.81  55 2.82  77 2.84  60 2.85  29 2.88
                            52 2.90  80 2.91  81 2.91  33 2.96
  57  0.100  0.423  0.478-  37 2.75  86 2.80  60 2.81  81 2.82  33 2.83  82 2.83  85 2.85  53 2.90
                            61 2.91  38 2.93  34 2.96  58 3.01
  58  0.362  0.419  0.476-  54 2.67  83 2.78  35 2.80  59 2.80  34 2.81  38 2.85  62 2.88  87 2.89
                            39 2.91  86 2.94  82 2.95  57 3.01
  59  0.606  0.424  0.477-  39 2.80  58 2.80  55 2.82  83 2.84  60 2.85  35 2.87  63 2.87  87 2.88
                            40 2.89  84 2.93  88 2.95  36 2.97
  60  0.855  0.419  0.479-  36 2.74  57 2.81  84 2.83  85 2.84  59 2.85  56 2.85  81 2.86  40 2.91
                            88 2.93  37 2.94  64 2.95  33 2.96
  61  0.113  0.592  0.480-  86 2.74  65 2.78  90 2.79  89 2.84  37 2.85  42 2.86  64 2.88  62 2.88
                            85 2.91  57 2.91  38 2.92  41 2.95
  62  0.364  0.587  0.477-  43 2.78  39 2.80  63 2.81  66 2.82  38 2.83  87 2.86  58 2.88  61 2.88
                            42 2.89  86 2.92  91 2.94  90 2.96
  63  0.609  0.591  0.480-  92 2.77  43 2.81  67 2.81  62 2.81  91 2.84  88 2.84  59 2.87  87 2.88
                            39 2.89  64 2.89  40 2.90  44 3.07
  64  0.861  0.591  0.481-  85 2.72  89 2.75  92 2.75  88 2.87  61 2.88  40 2.89  68 2.89  63 2.89
                            37 2.93  41 2.93  60 2.95  44 2.98
  65  0.117  0.754  0.477-  42 2.72  68 2.77  61 2.78  46 2.81  94 2.87  90 2.89  66 2.90  45 2.91
                            69 2.95  41 2.95  93 2.95  89 3.02
  66  0.370  0.751  0.479-  91 2.69  43 2.78  95 2.79  62 2.82  90 2.84  94 2.84  47 2.85  70 2.89
                            65 2.90  42 2.96  67 2.97  46 3.01
  67  0.629  0.754  0.480-  92 2.69  44 2.78  63 2.81  96 2.81  68 2.82  95 2.87  48 2.88  71 2.88
                            43 2.92  91 2.95  47 2.95  66 2.97
  68  0.875  0.759  0.477-  45 2.70  65 2.77  44 2.80  93 2.80  67 2.82  41 2.83  72 2.87  64 2.89
                            89 2.89  48 2.96  96 3.00  92 3.01
  69  0.119  0.925  0.480-  94 2.75  70 2.77  74 2.79  73 2.79  26 2.84  49 2.86  46 2.91  93 2.92
                            65 2.95  45 2.95  25 2.98  72 3.03
  70  0.360  0.919  0.478-  94 2.74  69 2.77  47 2.81  46 2.82  71 2.83  95 2.86  66 2.89  26 2.89
                            27 2.90  75 2.92  50 2.98  74 2.98
  71  0.608  0.921  0.478-  47 2.75  48 2.78  72 2.82  70 2.83  95 2.84  51 2.87  28 2.88  67 2.88
                            27 2.89  76 2.90  75 2.97  96 2.97
  72  0.854  0.925  0.479-  52 2.75  76 2.82  71 2.82  48 2.83  25 2.83  96 2.84  45 2.84  73 2.85
                            68 2.87  28 2.92  93 2.95  69 3.03
  73  0.987  0.002  0.519-  97 2.79  69 2.79  74 2.83  72 2.85 117 2.86  93 2.86  77 2.86  52 2.88
                           120 2.89  49 2.89  76 2.92 100 3.00
  74  0.233  0.010  0.519-  98 2.69  69 2.79  97 2.81  75 2.82  73 2.83  78 2.88 117 2.88  50 2.88
                           118 2.88  94 2.92  49 2.92  70 2.98
  75  0.480  0.006  0.520-  99 2.73  98 2.77 118 2.80  74 2.82 119 2.84  79 2.89  76 2.89  50 2.92
                            95 2.92  70 2.92  51 2.93  71 2.97
  76  0.732  0.004  0.519-  96 2.81  72 2.82  99 2.83 120 2.85  80 2.85  52 2.86 100 2.87 119 2.88
                            75 2.89  71 2.90  51 2.91  73 2.92
  77  0.980  0.169  0.519- 104 2.80  78 2.80  97 2.81  53 2.83 101 2.83 100 2.84  49 2.84  56 2.84
                            73 2.86  52 2.88  80 2.92  81 2.95
  78  0.225  0.177  0.518- 101 2.77  53 2.78  77 2.80  79 2.81 102 2.82  82 2.83  49 2.85  74 2.88
                            50 2.90  98 2.93  54 2.94  97 2.95
  79  0.470  0.174  0.517-  50 2.71  78 2.81 102 2.81  83 2.86  54 2.88  75 2.89  51 2.89  98 2.89
                           103 2.91  99 2.92  80 2.94  55 2.97
  80  0.726  0.170  0.520-  99 2.73 103 2.75 100 2.79  84 2.85  76 2.85 104 2.88  51 2.88  56 2.91
                            77 2.92  79 2.94  52 2.97  55 2.98
  81  0.984  0.341  0.519- 101 2.73  82 2.78 108 2.81  57 2.82 105 2.83  85 2.83  53 2.85 104 2.86
                            60 2.86  84 2.90  56 2.91  77 2.95
  82  0.226  0.342  0.518-  81 2.78  86 2.78 101 2.79  78 2.83  57 2.83 105 2.85  54 2.87 106 2.89
                            83 2.89  53 2.89  58 2.95 102 2.95
  83  0.478  0.340  0.516-  58 2.78  54 2.78  87 2.79  59 2.84  55 2.84  79 2.86 107 2.86  84 2.89
                           103 2.89  82 2.89 106 2.93 102 3.00
  84  0.730  0.336  0.518- 103 2.78  56 2.81 107 2.81  55 2.81  60 2.83  80 2.85 108 2.86  83 2.89
                            81 2.90  59 2.93 104 2.94  88 2.94
  85  0.974  0.506  0.518-  64 2.72  88 2.78  81 2.83  60 2.84  89 2.84 109 2.85  57 2.85 112 2.86
                           108 2.88  61 2.91  86 2.91 105 2.93
  86  0.228  0.504  0.517-  61 2.74  82 2.78  57 2.80  87 2.85 109 2.87  90 2.90 105 2.91  85 2.91
                            62 2.92 106 2.93  58 2.94 110 3.02
  87  0.477  0.502  0.518-  83 2.79 106 2.80 107 2.81  86 2.85  62 2.86  59 2.88  63 2.88  58 2.89
                           111 2.90  88 2.92 110 2.93  91 2.97
  88  0.731  0.507  0.520- 107 2.77  85 2.78 111 2.79 108 2.83  63 2.84  92 2.85  64 2.87 112 2.88
[...]
     0.000000000  0.000000000 50.125000000     0.000000000  0.000000000  0.019950125

  length of vectors
    11.455129855 17.182694783 50.125000000     0.087297133  0.058198089  0.019950125

 FORCES acting on ions
    electron-ion (+dipol)            ewald-force                    non-local-force                 convergence-correction
   -.127E+01 0.178E+01 0.371E+03   0.122E+01 -.170E+01 -.369E+03   0.818E-01 0.256E-01 -.132E+01   0.121E-03 0.477E-03 0.124E-02
   0.219E-01 0.154E+00 0.375E+03   0.139E+00 -.573E+00 -.374E+03   -.138E+00 0.595E+00 -.984E+00   -.513E-04 0.670E-03 0.140E-02
   -.861E-02 0.303E+01 0.373E+03   -.197E+00 -.254E+01 -.372E+03   0.263E+00 -.620E+00 -.974E+00   -.154E-03 0.735E-03 0.135E-02
   0.870E+00 -.117E+01 0.371E+03   -.838E+00 0.756E+00 -.369E+03   -.959E-01 0.596E+00 -.144E+01   0.681E-04 0.516E-03 0.114E-02
   -.255E+00 -.157E+01 0.379E+03   0.267E+00 0.105E+01 -.378E+03   -.285E-01 0.719E+00 -.111E+01   0.156E-03 0.297E-03 0.155E-02
   -.346E+00 0.186E+01 0.376E+03   0.339E+00 -.161E+01 -.374E+03   -.892E-01 -.357E+00 -.141E+01   0.124E-03 0.291E-03 0.167E-02
   -.973E+00 -.244E+01 0.376E+03   0.738E+00 0.206E+01 -.375E+03   0.255E+00 0.763E+00 -.106E+01   -.183E-03 0.363E-03 0.165E-02
   0.164E+01 -.432E+00 0.380E+03   -.133E+01 0.479E+00 -.379E+03   -.461E+00 -.665E-01 -.954E+00   -.919E-04 0.372E-03 0.161E-02
   0.379E+01 0.437E+00 0.371E+03   -.310E+01 -.243E+00 -.369E+03   -.109E+01 -.126E+00 -.192E+01   0.150E-03 -.249E-03 0.180E-02
   -.173E+01 -.939E+00 0.376E+03   0.160E+01 0.913E+00 -.375E+03   0.288E+00 -.156E-02 -.958E+00   0.127E-03 -.296E-03 0.152E-02
   -.792E+00 0.112E+01 0.376E+03   0.712E+00 -.962E+00 -.375E+03   0.167E+00 -.246E+00 -.658E+00   -.151E-03 -.190E-03 0.151E-02
   -.131E+01 0.134E+01 0.369E+03   0.877E+00 -.105E+01 -.368E+03   0.602E+00 -.487E+00 -.132E+01   -.140E-03 -.267E-03 0.179E-02
   0.717E+00 -.192E+01 0.379E+03   -.456E+00 0.177E+01 -.378E+03   -.364E+00 0.276E+00 -.698E+00   0.670E-04 -.285E-03 0.142E-02
   -.935E+00 -.131E+01 0.373E+03   0.769E+00 0.136E+01 -.372E+03   0.209E+00 -.291E-01 -.660E+00   0.107E-03 -.368E-03 0.143E-02
   0.345E+01 -.373E+00 0.375E+03   -.303E+01 0.342E+00 -.374E+03   -.675E+00 0.113E+00 -.966E+00   -.333E-04 -.408E-03 0.134E-02
   -.338E+01 -.106E+01 0.371E+03   0.270E+01 0.653E+00 -.370E+03   0.960E+00 0.606E+00 -.167E+01   -.154E-03 -.339E-03 0.146E-02
   -.109E+00 -.419E-01 0.374E+03   0.149E+00 0.326E+00 -.373E+03   -.116E+00 -.287E+00 -.895E+00   0.104E-03 -.203E-03 0.146E-02
   -.824E+00 -.123E+01 0.371E+03   0.681E+00 0.110E+01 -.370E+03   0.285E+00 0.129E+00 -.754E+00   -.131E-03 -.349E-03 0.172E-02
   0.436E+01 -.165E+01 0.370E+03   -.395E+01 0.136E+01 -.369E+03   -.695E+00 0.461E+00 -.141E+01   0.383E-04 -.435E-03 0.149E-02
   -.458E+01 -.219E+01 0.377E+03   0.389E+01 0.202E+01 -.376E+03   0.108E+01 0.468E+00 -.125E+01   -.426E-04 -.292E-03 0.119E-02
   -.514E+01 -.133E+00 0.371E+03   0.432E+01 -.412E-01 -.370E+03   0.130E+01 0.318E+00 -.116E+01   -.355E-04 -.635E-04 0.124E-02
   -.682E+00 -.313E+00 0.371E+03   0.543E+00 0.292E+00 -.370E+03   0.338E+00 0.172E+00 -.101E+01   -.186E-03 -.863E-05 0.155E-02
   0.481E+01 -.201E+01 0.374E+03   -.426E+01 0.174E+01 -.373E+03   -.792E+00 0.490E+00 -.104E+01   0.895E-04 -.640E-04 0.137E-02
   -.415E+00 0.113E+01 0.378E+03   0.394E+00 -.893E+00 -.377E+03   0.191E-01 -.331E+00 -.669E+00   0.142E-03 -.345E-04 0.908E-03
   -.195E+01 0.327E+01 0.223E+03   0.176E+01 -.292E+01 -.222E+03   0.408E+00 -.568E+00 -.188E+00   0.190E-03 0.305E-03 0.153E-02
   -.783E-01 0.459E+01 0.222E+03   0.190E+00 -.382E+01 -.222E+03   -.189E+00 -.120E+01 -.623E+00   0.115E-03 0.392E-03 0.157E-02
   0.979E+00 0.217E+01 0.228E+03   -.983E+00 -.182E+01 -.227E+03   0.127E-01 -.571E+00 -.989E-01   -.114E-03 0.435E-03 0.175E-02
   0.120E+01 0.699E+00 0.228E+03   -.134E+01 -.437E+00 -.227E+03   0.130E+00 -.438E+00 -.602E-01   -.191E-03 0.385E-03 0.173E-02
   0.453E-01 0.158E+01 0.227E+03   -.580E-01 -.127E+01 -.227E+03   -.211E-01 -.438E+00 -.158E+00   0.103E-03 0.867E-03 0.185E-02
   -.145E+01 0.121E+01 0.228E+03   0.154E+01 -.103E+01 -.228E+03   -.343E-01 -.204E+00 0.345E+00   0.163E-03 0.781E-03 0.175E-02
   0.146E+01 0.331E+01 0.225E+03   -.115E+01 -.274E+01 -.224E+03   -.505E+00 -.842E+00 -.287E+00   -.349E-04 0.857E-03 0.167E-02
   0.152E+01 0.434E+01 0.226E+03   -.132E+01 -.338E+01 -.226E+03   -.239E+00 -.152E+01 -.323E+00   -.215E-03 0.950E-03 0.185E-02
   0.336E+00 -.183E+01 0.228E+03   -.120E+00 0.158E+01 -.228E+03   -.255E+00 0.433E+00 -.584E-01   -.113E-04 -.125E-04 0.190E-02
   -.274E+00 0.787E+00 0.229E+03   0.180E+00 -.637E+00 -.229E+03   0.174E+00 -.312E+00 0.320E+00   0.153E-03 -.475E-04 0.193E-02
   -.321E+01 -.141E+01 0.235E+03   0.304E+01 0.132E+01 -.235E+03   0.410E+00 0.129E+00 0.216E+00   -.888E-04 -.124E-03 0.186E-02
   0.576E+01 -.426E+01 0.228E+03   -.466E+01 0.371E+01 -.227E+03   -.174E+01 0.899E+00 -.713E+00   -.236E-04 -.621E-04 0.183E-02
   0.179E+01 0.492E+00 0.221E+03   -.134E+01 -.250E+00 -.220E+03   -.712E+00 -.386E+00 -.354E+00   0.756E-04 -.426E-03 0.173E-02
   -.269E+01 -.219E+01 0.226E+03   0.234E+01 0.209E+01 -.226E+03   0.641E+00 0.250E+00 0.292E+00   0.675E-04 -.439E-03 0.186E-02
   0.111E+01 0.129E+01 0.230E+03   -.788E+00 -.851E+00 -.229E+03   -.485E+00 -.662E+00 -.369E+00   0.134E-04 -.439E-03 0.179E-02
   0.140E+01 0.261E+01 0.221E+03   -.125E+01 -.208E+01 -.221E+03   -.251E+00 -.831E+00 0.693E+00   -.141E-03 -.467E-03 0.167E-02
   -.331E+01 -.253E+01 0.232E+03   0.290E+01 0.212E+01 -.232E+03   0.738E+00 0.743E+00 0.329E+00   0.151E-03 -.376E-03 0.178E-02
   -.216E+01 -.110E+00 0.228E+03   0.168E+01 0.296E+00 -.228E+03   0.704E+00 -.348E+00 -.271E+00   0.615E-04 -.191E-03 0.185E-02
   0.178E+01 -.482E+00 0.222E+03   -.159E+01 0.416E+00 -.221E+03   -.230E+00 0.108E+00 -.806E+00   -.129E-03 -.387E-03 0.177E-02
   0.223E+01 0.363E+01 0.224E+03   -.177E+01 -.260E+01 -.224E+03   -.770E+00 -.159E+01 0.797E+00   -.997E-04 -.396E-03 0.169E-02
   -.202E+01 0.107E+01 0.224E+03   0.203E+01 -.817E+00 -.224E+03   0.536E-01 -.455E+00 -.411E+00   0.237E-03 -.305E-03 0.158E-02
   0.105E+01 -.761E+00 0.227E+03   -.750E+00 0.782E+00 -.227E+03   -.476E+00 -.192E-01 0.223E+00   0.512E-04 -.448E-03 0.168E-02
   0.318E+01 -.670E+00 0.223E+03   -.296E+01 0.759E+00 -.223E+03   -.476E+00 -.497E-01 -.690E+00   -.137E-03 -.326E-03 0.181E-02
   -.153E+01 -.253E+00 0.227E+03   0.128E+01 0.637E+00 -.227E+03   0.493E+00 -.495E+00 0.115E+00   -.163E-03 -.329E-03 0.167E-02
   -.170E+01 0.138E+01 0.772E+02   0.132E+01 -.128E+01 -.772E+02   0.474E+00 -.207E+00 0.822E-01   0.921E-04 0.790E-03 0.323E-03
   -.373E+00 0.610E+00 0.759E+02   0.562E+00 -.710E+00 -.756E+02   -.268E+00 0.582E-01 -.398E+00   0.310E-04 0.689E-03 0.161E-03
   0.295E+00 -.111E+01 0.752E+02   -.224E+00 0.802E+00 -.751E+02   -.108E-01 0.501E+00 0.792E-01   -.787E-04 0.672E-03 0.254E-03
   0.194E+01 -.244E+01 0.740E+02   -.180E+01 0.181E+01 -.738E+02   -.219E+00 0.106E+01 0.412E-01   -.537E-04 0.721E-03 0.421E-03
   -.322E+01 -.140E+01 0.746E+02   0.253E+01 0.988E+00 -.741E+02   0.104E+01 0.609E+00 -.535E+00   0.400E-04 0.461E-03 0.301E-03
   -.399E+00 0.402E+01 0.805E+02   0.262E+00 -.329E+01 -.805E+02   0.164E+00 -.130E+01 0.126E+00   -.222E-04 0.504E-03 0.174E-03
   0.167E+01 0.190E+01 0.790E+02   -.151E+01 -.162E+01 -.793E+02   -.361E+00 -.430E+00 0.542E+00   0.144E-08 0.386E-03 0.133E-03
   0.313E+00 0.123E+01 0.694E+02   -.438E+00 -.122E+01 -.693E+02   0.249E+00 -.832E-01 0.222E-01   -.170E-04 0.505E-03 0.202E-03
   -.287E+01 -.155E+00 0.753E+02   0.223E+01 0.299E+00 -.748E+02   0.915E+00 -.193E+00 -.513E+00   0.108E-03 -.433E-03 0.151E-03
   0.195E+01 -.407E+01 0.827E+02   -.152E+01 0.338E+01 -.830E+02   -.695E+00 0.120E+01 0.316E+00   0.454E-05 -.384E-03 0.227E-03
   -.202E+01 -.110E+01 0.801E+02   0.178E+01 0.104E+01 -.800E+02   0.514E+00 0.944E-01 -.498E-01   -.112E-03 -.345E-03 0.890E-04
   0.116E+01 -.257E+01 0.748E+02   -.139E+01 0.211E+01 -.743E+02   0.289E+00 0.713E+00 -.461E+00   -.208E-04 -.473E-03 0.127E-03
[...]
   0.802E+00 -.499E+00 -.365E+03   -.965E+00 0.415E+00 0.363E+03   0.325E+00 0.101E+00 0.179E+01   0.222E-03 -.109E-03 -.102E-02
   0.141E+01 -.272E+01 -.373E+03   -.127E+01 0.220E+01 0.372E+03   -.211E+00 0.731E+00 0.806E+00   0.148E-03 -.187E-03 -.646E-03
   -.223E+01 0.237E+01 -.376E+03   0.176E+01 -.218E+01 0.375E+03   0.687E+00 -.393E+00 0.735E+00   0.430E-04 -.259E-03 -.341E-03
   0.500E+00 0.646E+01 -.376E+03   -.226E+00 -.588E+01 0.375E+03   -.387E+00 -.114E+01 0.932E+00   -.999E-04 0.106E-03 -.336E-03
   0.189E+01 0.619E+00 -.375E+03   -.142E+01 -.676E+00 0.374E+03   -.710E+00 0.765E-01 0.972E+00   0.129E-04 -.298E-04 -.389E-03
   0.131E+01 0.161E+00 -.370E+03   -.118E+01 0.254E-01 0.369E+03   -.187E+00 -.285E+00 0.130E+01   0.673E-04 -.279E-03 -.273E-03
   0.424E+01 -.427E+01 -.378E+03   -.365E+01 0.355E+01 0.377E+03   -.912E+00 0.105E+01 0.740E+00   0.124E-03 0.257E-03 -.314E-03
   0.118E+01 -.291E+00 -.372E+03   -.106E+01 0.403E-01 0.371E+03   -.314E+00 0.362E+00 0.962E+00   0.397E-04 0.177E-03 0.138E-03
   -.550E+01 0.239E+01 -.375E+03   0.482E+01 -.198E+01 0.374E+03   0.105E+01 -.467E+00 0.798E+00   -.273E-04 0.420E-03 -.104E-03
   0.124E+01 -.130E+01 -.375E+03   -.106E+01 0.133E+01 0.374E+03   -.392E+00 0.846E-01 0.959E+00   -.105E-03 0.459E-03 -.494E-03
   0.475E+01 0.277E+01 -.371E+03   -.405E+01 -.210E+01 0.369E+03   -.918E+00 -.100E+01 0.215E+01   -.180E-03 -.234E-03 -.181E-03
   0.142E+01 -.153E+01 -.378E+03   -.136E+01 0.137E+01 0.377E+03   -.119E+00 0.303E+00 0.783E+00   0.832E-04 -.307E-03 0.202E-03
   0.257E+00 -.119E+01 -.375E+03   0.279E+00 0.821E+00 0.374E+03   -.806E+00 0.440E+00 0.100E+01   0.140E-03 -.320E-03 -.521E-04
   -.551E+01 0.452E+01 -.378E+03   0.442E+01 -.382E+01 0.377E+03   0.137E+01 -.116E+01 0.680E+00   -.631E-04 -.284E-03 -.515E-03
   -.470E+00 0.123E+01 0.421E+00   0.115E-13 -.857E-13 -.148E-11   0.469E+00 -.123E+01 -.511E+00   -.218E-04 -.111E-04 0.870E-01

 POSITION                                       TOTAL-FORCE (eV/Angst)
      1.23025      1.42214     20.02985         0.038929      0.111487     -0.104943
      4.09998      1.46510     19.92430         0.022576      0.177035      0.108895
      6.92009      1.57919     19.95737         0.056723     -0.132356      0.041403
      9.82296      1.52672     20.03300        -0.063864      0.183107     -0.169614
      1.33366      4.23450     19.87566        -0.016764      0.203010      0.068342
      4.17475      4.44192     19.93669        -0.095512     -0.107669     -0.058419
      7.04736      4.32341     19.90505         0.019767      0.379635      0.039063
      9.97684      4.42771     19.85688        -0.147296     -0.018922      0.107522
      1.32671      7.21809     20.06272        -0.399111      0.066963     -0.416014
      4.09993      7.32914     19.90291         0.157076     -0.028048      0.125365
      7.00179      7.24905     19.86860         0.087036     -0.085836      0.261890
      9.84234      7.32191     20.05660         0.169922     -0.201478     -0.129470
      1.30110     10.04894     19.85917        -0.102207      0.132137      0.161465
      4.16820     10.16702     19.91921         0.043390      0.023537      0.218402
      7.10751     10.11206     19.92144        -0.250335      0.082020      0.062627
      9.82900     10.05475     20.03441         0.277007      0.201433     -0.326918
      1.21783     12.98802     19.92844        -0.075897     -0.002998      0.155092
      4.09762     12.96637     19.98128         0.141091      0.001503      0.057257
      6.98760     12.90699     20.04230        -0.280576      0.177578     -0.198862
      9.73558     12.95866     19.90431         0.390377      0.289542     -0.021489
      1.00086     15.79485     19.99014         0.481437      0.143544     -0.035607
      3.97056     15.80265     19.98384         0.198403      0.150340      0.018037
      6.94191     15.76243     19.94658        -0.234235      0.222878      0.040315
      9.71155     15.91438     19.84847        -0.002215     -0.088723      0.245205
     11.19906      0.13492     21.99323         0.215485     -0.211419      0.095945
      2.69091      0.19709     22.02912        -0.077062     -0.435293     -0.045192
      5.51683      0.16364     21.94495         0.009104     -0.225260      0.093324
      8.33749      0.19186     21.93587        -0.009548     -0.175455      0.050681
     11.27616      3.00243     21.93774        -0.033661     -0.131475      0.094762
      2.70768      3.00093     21.90548         0.048377     -0.025050      0.248303
      5.58868      3.08154     21.96206        -0.194033     -0.270174      0.069250
      8.45558      3.10905     21.95297        -0.046969     -0.565236      0.055783
     11.34725      5.77282     21.92541        -0.039216      0.179932      0.140859
      2.67364      5.84530     21.88593         0.079243     -0.162578      0.332573
      5.56172      5.87931     21.83107         0.241382      0.032578      0.203783
      8.61513      5.78803     21.96032        -0.641775      0.346736     -0.145789
     11.35559      8.73482     22.01678        -0.256294     -0.144755      0.018640
      2.66418      8.70339     21.93354         0.286846      0.152850      0.328382
      5.65133      8.77250     21.91726        -0.164321     -0.219940      0.007606
      8.45047      8.81073     21.97022        -0.102914     -0.298893      0.529892
     11.24563     11.48141     21.86835         0.334595      0.327327      0.308000
      2.62432     11.56518     21.93879         0.226796     -0.163146      0.054854
      5.62701     11.55177     22.03966        -0.036526      0.041644     -0.177266
      8.52911     11.71557     21.93556        -0.305485     -0.556017      0.527995
     11.24042     14.49496     21.98768         0.062378     -0.203687      0.026363
      2.71165     14.42581     21.94056        -0.175311      0.001842      0.275010
      5.60438     14.38927     22.01925        -0.249958      0.039358     -0.075184
      8.39210     14.52612     21.93707         0.236273     -0.111445      0.166013
      1.19713      1.57306     23.93526         0.098545     -0.109234      0.097135
      4.10393      1.57881     23.97148        -0.078473     -0.041667     -0.074424
      6.94737      1.52031     23.95300         0.060965      0.190290      0.169432
      9.81663      1.45095     23.96196        -0.086998      0.420724      0.189031
      1.11756      4.36694     23.98597         0.340413      0.201437     -0.076324
      4.03063      4.53845     23.88151         0.026986     -0.574665      0.114268
      6.99256      4.46973     23.88611        -0.199878     -0.151553      0.206614
      9.80320      4.35184     24.01511         0.123546     -0.072681      0.166613
      1.14039      7.26577     23.97731         0.273741     -0.049922     -0.034639
      4.14311      7.20396     23.85150        -0.267403      0.510345      0.022497
      6.94521      7.29172     23.90972         0.278918      0.034873      0.034462
      9.79043      7.20666     23.98800         0.060629      0.260825     -0.046599
[...]
      2.75535      5.89117     30.07680        -0.304410     -0.058974     -0.269113
      5.50091      5.78053     29.79780         0.162565      0.016352      0.434638
      8.34102      5.75562     29.98986        -0.073780      0.210290     -0.106082
     11.19435      8.69182     30.05713         0.214493     -0.204105     -0.114266
      2.71939      8.88537     30.07531        -0.113595     -0.554009     -0.122642
      5.65896      8.63447     30.01833        -0.242377      0.019198     -0.013416
      8.42775      8.68497     29.91799        -0.058279     -0.098638      0.128931
      0.04388     11.45153     30.08323        -0.317160      0.330689     -0.162375
      2.76617     11.59737     29.98224        -0.191100      0.110757      0.035423
      5.50679     11.58709     30.04589         0.361786     -0.053089     -0.165743
      8.52806     11.59220     30.03500        -0.203694      0.112827     -0.112319
     11.40735     14.49447     29.85934        -0.218376     -0.339160      0.447291
      2.76208     14.35269     30.06975        -0.066592      0.147131     -0.116707
      5.60292     14.38352     30.03019        -0.269829      0.073034     -0.151680
      8.30670     14.54339     30.08703         0.278939     -0.459568     -0.148319
    total drift:                               -0.001460      0.001116     -0.002539

  FREE ENERGIE OF THE ION-ELECTRON SYSTEM (eV)
  free  energy   TOTEN  =      -572.36904992 eV

  energy  without entropy=     -572.39747451  energy(sigma->0) =     -572.37852478

 writing wavefunctions